NAME : n80w20.004.694.tour
COMMENT : Length = 694
COMMENT : Found by LKH [Keld Helsgaun] Tue Nov  7 19:36:27 2017
TYPE : TOUR
DIMENSION : 81
TOUR_SECTION
1
71
25
48
75
21
66
15
17
11
9
23
73
54
40
10
13
64
63
6
26
76
43
30
24
68
32
12
74
57
52
65
35
44
46
22
16
62
45
41
37
4
49
31
18
80
19
38
20
58
36
39
7
67
61
2
78
42
28
70
69
50
51
3
8
77
29
53
60
59
55
47
27
33
79
72
5
56
81
14
34
-1
EOF
